33D32945 STP File, STP Format Version 1.0

SECTION Comment
Name    "i160-045"
Creator "Cees Duin"
Remark  "Incidence graph"
END

SECTION Graph
Nodes 160
Edges 2544
E 1 4 299
E 1 7 300
E 1 12 202
E 1 24 197
E 1 25 194
E 1 31 197
E 1 37 199
E 1 47 198
E 1 53 198
E 1 57 204
E 1 66 199
E 1 74 209
E 1 77 205
E 1 89 194
E 1 101 203
E 1 106 200
E 1 111 201
E 1 113 199
E 1 117 208
E 1 118 188
E 1 119 200
E 1 123 196
E 1 129 203
E 1 137 200
E 1 140 203
E 1 142 198
E 1 154 193
E 2 10 197
E 2 16 191
E 2 25 198
E 2 34 203
E 2 39 202
E 2 41 193
E 2 43 192
E 2 45 197
E 2 46 206
E 2 50 203
E 2 55 195
E 2 57 199
E 2 59 199
E 2 61 205
E 2 63 203
E 2 64 207
E 2 67 194
E 2 71 210
E 2 82 192
E 2 92 190
E 2 99 195
E 2 104 210
E 2 108 196
E 2 112 199
E 2 117 199
E 2 124 201
E 2 128 201
E 2 133 202
E 2 139 204
E 2 141 214
E 2 145 195
E 2 146 211
E 2 147 196
E 2 150 196
E 2 154 201
E 2 158 201
E 3 8 190
E 3 14 199
E 3 24 207
E 3 31 194
E 3 35 194
E 3 59 192
E 3 63 198
E 3 65 187
E 3 77 199
E 3 92 198
E 3 94 200
E 3 108 193
E 3 115 200
E 3 120 203
E 3 121 194
E 3 127 198
E 3 129 200
E 3 140 205
E 3 144 202
E 3 145 208
E 3 146 200
E 3 151 194
E 3 153 204
E 3 154 197
E 3 155 205
E 3 157 196
E 3 158 197
E 4 11 193
E 4 13 200
E 4 15 192
E 4 17 204
E 4 21 198
E 4 28 195
E 4 30 189
E 4 36 197
E 4 38 195
E 4 43 204
E 4 48 193
E 4 52 201
E 4 54 196
E 4 61 195
E 4 68 195
E 4 69 199
E 4 82 209
E 4 85 194
E 4 89 196
E 4 100 194
E 4 106 197
E 4 108 193
E 4 146 193
E 4 148 201
E 4 149 199
E 4 151 199
E 4 160 203
E 5 8 191
E 5 21 202
E 5 32 194
E 5 54 204
E 5 64 196
E 5 66 188
E 5 70 193
E 5 71 198
E 5 72 200
E 5 75 195
E 5 78 196
E 5 94 195
E 5 100 203
E 5 101 206
E 5 109 189
E 5 114 201
E 5 115 211
E 5 119 190
E 5 126 191
E 5 130 192
E 5 141 209
E 5 144 203
E 5 155 208
E 6 12 201
E 6 20 196
E 6 23 197
E 6 34 201
E 6 40 199
E 6 46 202
E 6 48 205
E 6 53 199
E 6 57 199
E 6 60 196
E 6 68 201
E 6 69 200
E 6 73 198
E 6 75 202
E 6 78 199
E 6 83 198
E 6 84 198
E 6 86 201
E 6 87 199
E 6 91 201
E 6 94 205
E 6 96 208
E 6 103 201
E 6 105 193
E 6 111 202
E 6 119 202
E 6 121 202
E 6 126 194
E 6 132 193
E 6 150 201
E 6 157 194
E 7 9 195
E 7 21 189
E 7 24 200
E 7 28 197
E 7 35 197
E 7 37 187
E 7 40 206
E 7 43 196
E 7 47 190
E 7 48 195
E 7 56 202
E 7 57 196
E 7 69 192
E 7 70 202
E 7 73 199
E 7 74 198
E 7 76 199
E 7 78 200
E 7 99 199
E 7 103 206
E 7 108 198
E 7 115 194
E 7 117 204
E 7 120 201
E 7 123 200
E 7 134 195
E 7 137 202
E 7 140 210
E 7 143 200
E 7 155 200
E 7 160 199
E 8 18 105
E 8 20 105
E 8 24 104
E 8 26 102
E 8 37 101
E 8 49 101
E 8 58 96
E 8 83 98
E 8 87 99
E 8 91 105
E 8 92 96
E 8 93 99
E 8 97 96
E 8 104 98
E 8 107 102
E 8 124 101
E 8 126 99
E 8 130 100
E 8 131 98
E 8 132 90
E 8 135 99
E 8 136 102
E 8 137 95
E 8 138 95
E 8 159 102
E 9 10 100
E 9 20 104
E 9 21 98
E 9 37 101
E 9 48 100
E 9 56 99
E 9 59 106
E 9 62 99
E 9 63 101
E 9 66 98
E 9 73 96
E 9 80 94
E 9 84 95
E 9 85 88
E 9 95 103
E 9 96 101
E 9 119 103
E 9 120 100
E 9 129 96
E 9 130 96
E 9 131 108
E 9 136 95
E 9 145 97
E 9 148 99
E 9 149 103
E 9 150 99
E 9 152 95
E 9 159 93
E 10 13 105
E 10 16 90
E 10 21 99
E 10 27 99
E 10 28 100
E 10 31 109
E 10 32 106
E 10 36 96
E 10 39 101
E 10 44 96
E 10 55 93
E 10 56 105
E 10 60 103
E 10 61 95
E 10 63 100
E 10 66 99
E 10 70 96
E 10 76 95
E 10 78 100
E 10 80 101
E 10 81 91
E 10 82 95
E 10 85 102
E 10 93 101
E 10 96 109
E 10 101 100
E 10 102 102
E 10 105 100
E 10 109 106
E 10 121 99
E 10 122 109
E 10 133 103
E 10 139 98
E 10 141 96
E 10 142 104
E 10 143 93
E 10 145 92
E 10 146 94
E 10 152 99
E 10 158 100
E 11 17 97
E 11 20 93
E 11 26 102
E 11 27 96
E 11 31 106
E 11 37 111
E 11 42 102
E 11 44 97
E 11 47 101
E 11 57 106
E 11 60 111
E 11 61 97
E 11 62 100
E 11 64 98
E 11 66 103
E 11 69 87
E 11 76 96
E 11 77 101
E 11 81 107
E 11 84 94
E 11 94 96
E 11 99 98
E 11 101 93
E 11 106 100
E 11 124 105
E 11 127 100
E 11 129 99
E 11 141 96
E 11 146 111
E 11 149 101
E 11 156 105
E 12 17 95
E 12 18 101
E 12 26 90
E 12 37 97
E 12 52 102
E 12 56 97
E 12 59 88
E 12 73 103
E 12 78 99
E 12 80 100
E 12 81 96
E 12 91 100
E 12 105 92
E 12 107 101
E 12 109 99
E 12 116 98
E 12 117 110
E 12 128 93
E 12 130 106
E 12 132 104
E 12 133 95
E 12 140 104
E 12 141 96
E 12 142 103
E 12 149 93
E 12 152 98
E 13 17 100
E 13 19 102
E 13 27 102
E 13 30 97
E 13 38 99
E 13 42 102
E 13 51 105
E 13 52 96
E 13 69 111
E 13 70 105
E 13 71 103
E 13 72 102
E 13 73 106
E 13 75 104
E 13 78 104
E 13 80 100
E 13 82 102
E 13 87 98
E 13 88 88
E 13 92 102
E 13 95 102
E 13 98 112
E 13 103 92
E 13 105 104
E 13 107 97
E 13 124 97
E 13 125 105
E 13 140 95
E 13 142 100
E 13 143 95
E 13 147 102
E 13 148 92
E 13 153 103
E 13 155 103
E 13 156 90
E 13 158 96
E 13 160 99
E 14 19 96
E 14 22 99
E 14 33 96
E 14 40 95
E 14 41 102
E 14 44 107
E 14 50 101
E 14 55 87
E 14 56 102
E 14 61 101
E 14 64 95
E 14 65 98
E 14 73 103
E 14 78 97
E 14 87 91
E 14 98 105
E 14 107 89
E 14 110 99
E 14 111 99
E 14 117 91
E 14 126 100
E 14 132 101
E 14 133 93
E 14 137 96
E 14 139 101
E 14 142 99
E 14 147 99
E 14 150 108
E 14 152 107
E 14 155 92
E 14 158 92
E 15 16 102
E 15 17 96
E 15 19 105
E 15 22 96
E 15 33 96
E 15 35 98
E 15 38 100
E 15 44 105
E 15 46 103
E 15 49 100
E 15 55 105
E 15 56 104
E 15 57 109
E 15 61 89
E 15 74 98
E 15 83 105
E 15 85 100
E 15 97 105
E 15 98 105
E 15 99 97
E 15 103 102
E 15 108 95
E 15 111 101
E 15 118 99
E 15 120 104
E 15 129 101
E 15 137 98
E 15 139 104
E 15 151 108
E 15 153 106
E 15 154 101
E 15 160 96
E 16 17 95
E 16 22 94
E 16 46 103
E 16 71 99
E 16 76 107
E 16 79 96
E 16 80 101
E 16 89 99
E 16 94 98
E 16 96 101
E 16 101 98
E 16 102 97
E 16 110 106
E 16 120 104
E 16 122 105
E 16 125 91
E 16 128 94
E 16 132 108
E 16 142 105
E 16 143 95
E 16 151 98
E 16 154 104
E 16 157 102
E 17 23 90
E 17 24 87
E 17 34 102
E 17 36 105
E 17 39 96
E 17 43 110
E 17 44 93
E 17 47 96
E 17 57 101
E 17 72 101
E 17 73 98
E 17 77 104
E 17 78 95
E 17 84 110
E 17 85 102
E 17 93 105
E 17 94 103
E 17 107 87
E 17 118 99
E 17 123 95
E 17 127 102
E 17 132 110
E 17 139 103
E 17 140 101
E 17 144 102
E 17 145 96
E 17 147 94
E 17 148 92
E 17 152 95
E 17 154 109
E 17 157 97
E 18 20 99
E 18 24 105
E 18 35 92
E 18 58 104
E 18 66 102
E 18 72 100
E 18 77 105
E 18 82 101
E 18 83 100
E 18 87 94
E 18 91 102
E 18 92 94
E 18 98 104
E 18 100 98
E 18 101 95
E 18 111 101
E 18 119 95
E 18 120 93
E 18 135 106
E 18 142 102
E 18 145 108
E 18 158 97
E 19 26 96
E 19 28 100
E 19 38 105
E 19 40 107
E 19 45 97
E 19 48 94
E 19 50 97
E 19 55 93
E 19 59 102
E 19 61 98
E 19 78 104
E 19 79 92
E 19 83 96
E 19 90 103
E 19 95 102
E 19 107 108
E 19 111 94
E 19 114 102
E 19 123 101
E 19 127 96
E 19 132 87
E 19 137 101
E 19 140 105
E 19 148 101
E 19 149 106
E 19 151 105
E 19 154 98
E 20 21 101
E 20 31 103
E 20 32 95
E 20 33 93
E 20 51 96
E 20 52 96
E 20 60 102
E 20 62 102
E 20 65 98
E 20 66 96
E 20 69 97
E 20 78 105
E 20 82 97
E 20 83 101
E 20 92 96
E 20 94 95
E 20 110 95
E 20 114 97
E 20 121 94
E 20 123 97
E 20 125 98
E 20 133 97
E 20 139 103
E 20 148 103
E 20 149 95
E 20 150 102
E 20 156 106
E 20 158 94
E 21 42 88
E 21 43 95
E 21 44 102
E 21 58 97
E 21 62 108
E 21 68 106
E 21 72 102
E 21 82 103
E 21 89 96
E 21 91 100
E 21 96 103
E 21 99 98
E 21 101 100
E 21 102 102
E 21 113 92
E 21 115 100
E 21 123 102
E 21 125 104
E 21 137 97
E 21 138 100
E 21 144 99
E 21 157 93
E 22 24 103
E 22 26 91
E 22 28 94
E 22 33 99
E 22 39 100
E 22 51 99
E 22 52 94
E 22 53 109
E 22 55 107
E 22 57 101
E 22 58 99
E 22 68 96
E 22 70 95
E 22 73 94
E 22 74 101
E 22 81 100
E 22 83 100
E 22 85 98
E 22 87 93
E 22 98 104
E 22 103 89
E 22 113 98
E 22 124 100
E 22 126 92
E 22 128 104
E 22 141 107
E 22 144 102
E 22 148 107
E 22 157 105
E 22 158 98
E 22 160 108
E 23 25 93
E 23 31 97
E 23 35 105
E 23 39 103
E 23 41 99
E 23 45 99
E 23 46 94
E 23 55 101
E 23 59 94
E 23 61 102
E 23 62 101
E 23 63 92
E 23 67 88
E 23 69 95
E 23 71 98
E 23 81 107
E 23 85 93
E 23 89 97
E 23 90 101
E 23 96 97
E 23 112 98
E 23 119 94
E 23 120 100
E 23 130 91
E 23 138 102
E 23 139 108
E 23 143 98
E 23 155 98
E 23 157 105
E 24 25 98
E 24 36 96
E 24 45 101
E 24 48 110
E 24 49 99
E 24 50 104
E 24 51 105
E 24 65 103
E 24 66 100
E 24 70 112
E 24 75 102
E 24 93 93
E 24 95 104
E 24 98 96
E 24 99 104
E 24 106 97
E 24 107 101
E 24 113 99
E 24 136 89
E 24 137 102
E 24 138 110
E 24 142 106
E 24 148 102
E 24 153 98
E 24 154 99
E 24 158 98
E 24 160 99
E 25 27 100
E 25 33 104
E 25 35 101
E 25 41 101
E 25 43 106
E 25 44 96
E 25 52 105
E 25 59 104
E 25 60 98
E 25 64 98
E 25 65 100
E 25 68 93
E 25 70 98
E 25 75 105
E 25 77 99
E 25 80 99
E 25 82 104
E 25 98 108
E 25 102 102
E 25 104 91
E 25 105 102
E 25 106 94
E 25 110 99
E 25 114 97
E 25 122 92
E 25 123 107
E 25 124 94
E 25 128 99
E 25 131 102
E 25 133 103
E 25 145 96
E 25 148 102
E 25 150 98
E 26 28 102
E 26 29 105
E 26 38 100
E 26 43 97
E 26 48 102
E 26 51 103
E 26 52 97
E 26 56 90
E 26 58 97
E 26 59 105
E 26 67 100
E 26 82 91
E 26 86 93
E 26 89 103
E 26 109 98
E 26 116 102
E 26 117 102
E 26 130 92
E 26 133 96
E 26 141 99
E 26 151 94
E 26 153 109
E 26 154 99
E 27 35 106
E 27 37 107
E 27 39 97
E 27 41 93
E 27 51 96
E 27 60 103
E 27 65 102
E 27 71 90
E 27 75 96
E 27 76 96
E 27 78 95
E 27 82 104
E 27 94 99
E 27 96 104
E 27 112 94
E 27 116 105
E 27 130 100
E 27 131 95
E 27 137 96
E 27 143 94
E 27 149 98
E 27 151 100
E 27 152 103
E 27 154 99
E 27 157 98
E 27 160 112
E 28 29 96
E 28 35 98
E 28 42 96
E 28 50 96
E 28 51 88
E 28 55 96
E 28 56 107
E 28 62 103
E 28 63 102
E 28 76 91
E 28 81 105
E 28 84 102
E 28 85 95
E 28 86 99
E 28 89 105
E 28 94 102
E 28 105 97
E 28 106 99
E 28 113 102
E 28 126 99
E 28 127 95
E 28 132 99
E 28 134 103
E 28 135 99
E 28 139 91
E 28 140 103
E 28 151 97
E 28 152 98
E 28 154 98
E 28 160 86
E 29 33 100
E 29 36 106
E 29 37 97
E 29 39 93
E 29 56 105
E 29 60 106
E 29 64 98
E 29 70 110
E 29 73 102
E 29 75 95
E 29 79 96
E 29 86 103
E 29 87 106
E 29 88 91
E 29 96 89
E 29 100 96
E 29 111 103
E 29 114 98
E 29 116 97
E 29 120 101
E 29 121 95
E 29 123 99
E 29 125 105
E 29 127 94
E 29 131 96
E 29 136 101
E 29 138 102
E 29 140 102
E 29 144 100
E 29 148 94
E 29 158 102
E 30 38 114
E 30 40 88
E 30 47 99
E 30 59 105
E 30 62 103
E 30 66 91
E 30 72 105
E 30 73 95
E 30 75 95
E 30 84 101
E 30 100 95
E 30 107 97
E 30 108 101
E 30 111 98
E 30 115 100
E 30 117 100
E 30 122 104
E 30 126 94
E 30 127 105
E 30 129 94
E 30 137 102
E 30 141 95
E 30 148 105
E 30 152 110
E 30 154 100
E 30 160 96
E 31 43 97
E 31 44 101
E 31 59 108
E 31 61 104
E 31 70 102
E 31 96 100
E 31 97 105
E 31 98 100
E 31 106 94
E 31 111 96
E 31 115 105
E 31 117 101
E 31 124 106
E 31 133 96
E 31 135 100
E 31 138 110
E 31 140 96
E 31 147 108
E 31 149 104
E 31 151 98
E 31 159 107
E 32 35 97
E 32 37 98
E 32 39 101
E 32 45 105
E 32 48 93
E 32 63 100
E 32 68 99
E 32 69 104
E 32 77 98
E 32 84 95
E 32 86 98
E 32 87 102
E 32 89 104
E 32 90 107
E 32 92 104
E 32 93 95
E 32 101 97
E 32 106 100
E 32 115 91
E 32 124 98
E 32 129 97
E 32 139 102
E 32 141 105
E 32 143 105
E 32 152 98
E 32 153 96
E 32 158 104
E 33 35 102
E 33 36 85
E 33 39 94
E 33 47 102
E 33 61 102
E 33 71 104
E 33 77 95
E 33 78 91
E 33 86 90
E 33 87 102
E 33 88 97
E 33 95 106
E 33 96 101
E 33 98 103
E 33 116 99
E 33 133 104
E 33 135 104
E 33 148 100
E 33 155 95
E 34 38 105
E 34 40 97
E 34 42 89
E 34 53 106
E 34 59 96
E 34 66 104
E 34 69 99
E 34 77 99
E 34 79 95
E 34 80 103
E 34 81 101
E 34 83 100
E 34 85 85
E 34 91 98
E 34 93 97
E 34 95 100
E 34 96 93
E 34 110 108
E 34 113 99
E 34 115 102
E 34 116 96
E 34 135 98
E 34 150 87
E 34 154 87
E 34 155 100
E 35 36 101
E 35 37 104
E 35 46 109
E 35 47 101
E 35 50 101
E 35 55 97
E 35 61 100
E 35 70 104
E 35 81 96
E 35 88 105
E 35 95 92
E 35 97 92
E 35 98 101
E 35 101 97
E 35 102 101
E 35 104 100
E 35 105 105
E 35 109 98
E 35 115 107
E 35 121 102
E 35 130 92
E 35 133 93
E 35 141 98
E 35 143 106
E 35 151 95
E 36 41 96
E 36 49 103
E 36 52 90
E 36 58 106
E 36 62 99
E 36 72 100
E 36 73 97
E 36 74 105
E 36 75 90
E 36 82 108
E 36 87 101
E 36 93 89
E 36 99 105
E 36 100 102
E 36 106 99
E 36 114 100
E 36 121 102
E 36 125 98
E 36 128 104
E 36 129 102
E 36 130 86
E 36 131 102
E 36 137 103
E 36 144 105
E 36 150 95
E 37 43 100
E 37 44 97
E 37 45 103
E 37 46 98
E 37 59 99
E 37 60 95
E 37 62 98
E 37 66 99
E 37 67 100
E 37 78 99
E 37 91 99
E 37 98 90
E 37 102 95
E 37 107 97
E 37 108 105
E 37 119 101
E 37 120 96
E 37 124 103
E 37 126 96
E 37 130 105
E 37 134 92
E 37 145 103
E 37 148 101
E 37 150 100
E 37 151 93
E 37 157 97
E 37 159 102
E 38 41 102
E 38 42 86
E 38 47 95
E 38 50 92
E 38 51 98
E 38 62 96
E 38 67 93
E 38 68 94
E 38 71 101
E 38 116 97
E 38 128 95
E 38 129 106
E 38 131 101
E 38 132 101
E 38 133 106
E 38 135 99
E 38 139 94
E 38 150 113
E 38 156 105
E 39 43 94
E 39 47 107
E 39 48 97
E 39 56 97
E 39 57 92
E 39 64 106
E 39 74 97
E 39 82 95
E 39 83 99
E 39 89 103
E 39 91 106
E 39 97 108
E 39 103 103
E 39 107 98
E 39 109 104
E 39 117 101
E 39 124 96
E 39 134 96
E 39 136 103
E 39 140 103
E 39 144 97
E 39 149 98
E 39 154 90
E 40 55 99
E 40 57 94
E 40 65 99
E 40 66 101
E 40 69 102
E 40 71 91
E 40 80 102
E 40 83 104
E 40 90 94
E 40 101 98
E 40 102 99
E 40 107 110
E 40 112 88
E 40 124 98
E 40 141 108
E 40 145 107
E 40 156 107
E 40 160 97
E 41 54 98
E 41 56 99
E 41 58 99
E 41 69 94
E 41 70 92
E 41 75 104
E 41 76 108
E 41 83 101
E 41 84 107
E 41 88 103
E 41 92 102
E 41 93 91
E 41 94 104
E 41 98 104
E 41 102 105
E 41 105 106
E 41 106 107
E 41 141 92
E 41 143 90
E 41 146 95
E 41 150 100
E 41 154 104
E 42 43 95
E 42 48 91
E 42 56 102
E 42 60 96
E 42 66 93
E 42 73 91
E 42 74 97
E 42 78 100
E 42 80 108
E 42 82 85
E 42 83 92
E 42 85 101
E 42 88 96
E 42 90 102
E 42 96 101
E 42 122 96
E 42 125 99
E 42 130 89
E 42 132 97
E 42 143 107
E 42 146 96
E 43 46 98
E 43 55 107
E 43 57 95
E 43 63 96
E 43 66 100
E 43 74 98
E 43 81 101
E 43 97 96
E 43 98 90
E 43 104 97
E 43 105 101
E 43 122 99
E 43 126 96
E 43 130 96
E 43 131 94
E 43 132 101
E 43 142 109
E 43 145 101
E 43 148 101
E 43 149 98
E 43 155 93
E 43 158 96
E 44 47 96
E 44 49 103
E 44 59 98
E 44 60 103
E 44 66 98
E 44 84 97
E 44 85 97
E 44 94 97
E 44 97 103
E 44 99 103
E 44 100 105
E 44 104 95
E 44 107 107
E 44 117 95
E 44 122 102
E 44 127 88
E 44 128 106
E 44 133 100
E 44 144 104
E 44 147 100
E 44 152 102
E 44 153 98
E 44 155 97
E 44 156 99
E 44 158 99
E 44 160 103
E 45 47 94
E 45 49 103
E 45 60 101
E 45 64 102
E 45 70 103
E 45 71 100
E 45 76 106
E 45 81 104
E 45 99 99
E 45 101 101
E 45 102 101
E 45 117 97
E 45 121 94
E 45 126 91
E 45 127 98
E 45 135 107
E 45 138 93
E 45 139 92
E 45 140 103
E 45 143 97
E 45 146 98
E 45 149 99
E 45 150 97
E 45 154 102
E 45 157 89
E 45 158 113
E 46 53 106
E 46 61 95
E 46 67 102
E 46 70 98
E 46 77 109
E 46 80 90
E 46 82 97
E 46 92 99
E 46 99 100
E 46 100 95
E 46 102 97
E 46 106 103
E 46 108 97
E 46 121 105
E 46 122 103
E 46 124 102
E 46 126 107
E 46 127 101
E 46 128 98
E 46 129 103
E 46 131 98
E 46 132 91
E 46 137 96
E 46 143 100
E 46 159 95
E 47 53 92
E 47 55 107
E 47 56 101
E 47 58 106
E 47 65 104
E 47 66 95
E 47 69 101
E 47 73 101
E 47 77 108
E 47 80 100
E 47 91 99
E 47 99 100
E 47 101 102
E 47 112 102
E 47 113 96
E 47 117 95
E 47 122 99
E 47 125 104
E 47 127 104
E 47 129 107
E 47 131 98
E 47 139 98
E 47 142 94
E 47 146 100
E 47 147 95
E 47 149 95
E 47 155 92
E 48 51 102
E 48 55 93
E 48 61 96
E 48 64 95
E 48 66 104
E 48 69 105
E 48 71 98
E 48 81 89
E 48 86 104
E 48 90 91
E 48 92 105
E 48 97 96
E 48 98 93
E 48 99 99
E 48 103 103
E 48 119 92
E 48 120 90
E 48 122 102
E 48 126 100
E 48 128 103
E 48 133 98
E 48 139 109
E 48 142 102
E 48 154 94
E 49 50 100
E 49 54 106
E 49 57 95
E 49 58 100
E 49 59 105
E 49 67 88
E 49 69 98
E 49 70 102
E 49 78 98
E 49 79 97
E 49 81 105
E 49 84 103
E 49 88 108
E 49 89 96
E 49 90 96
E 49 94 94
E 49 95 91
E 49 97 95
E 49 109 100
E 49 112 102
E 49 115 100
E 49 118 103
E 49 119 92
E 49 125 99
E 49 129 104
E 49 134 101
E 49 135 100
E 49 140 104
E 49 148 93
E 50 55 99
E 50 57 103
E 50 63 96
E 50 81 109
E 50 87 101
E 50 89 88
E 50 92 96
E 50 93 105
E 50 107 96
E 50 113 102
E 50 118 107
E 50 119 98
E 50 121 103
E 50 123 103
E 50 125 96
E 50 126 95
E 50 129 94
E 50 132 100
E 50 139 94
E 50 144 95
E 51 52 97
E 51 53 105
E 51 72 97
E 51 76 103
E 51 77 98
E 51 78 99
E 51 81 93
E 51 83 95
E 51 84 91
E 51 85 101
E 51 87 96
E 51 89 96
E 51 94 97
E 51 109 97
E 51 112 103
E 51 116 99
E 51 118 103
E 51 119 105
E 51 127 98
E 51 141 99
E 51 142 99
E 52 54 97
E 52 55 110
E 52 64 97
E 52 66 96
E 52 76 99
E 52 79 101
E 52 83 102
E 52 85 110
E 52 89 104
E 52 114 102
E 52 118 99
E 52 120 98
E 52 139 106
E 52 145 111
E 52 147 99
E 52 149 96
E 52 157 102
E 53 55 93
E 53 56 102
E 53 72 96
E 53 80 104
E 53 85 103
E 53 94 101
E 53 97 109
E 53 99 99
E 53 103 103
E 53 115 101
E 53 122 101
E 53 126 104
E 53 134 96
E 53 141 94
E 53 153 102
E 53 159 106
E 54 61 101
E 54 66 103
E 54 71 102
E 54 72 98
E 54 76 93
E 54 77 103
E 54 92 93
E 54 93 94
E 54 94 100
E 54 95 98
E 54 107 97
E 54 114 99
E 54 117 102
E 54 120 97
E 54 126 104
E 54 127 94
E 54 128 101
E 54 136 94
E 54 137 89
E 54 145 98
E 54 149 93
E 54 153 106
E 54 154 102
E 55 58 105
E 55 59 101
E 55 65 89
E 55 81 99
E 55 87 96
E 55 96 106
E 55 102 96
E 55 107 103
E 55 109 95
E 55 112 100
E 55 124 92
E 55 133 102
E 55 147 106
E 55 150 99
E 55 158 96
E 56 58 97
E 56 62 103
E 56 67 107
E 56 68 99
E 56 102 102
E 56 106 101
E 56 107 97
E 56 109 95
E 56 132 102
E 56 143 98
E 56 146 94
E 56 147 105
E 56 149 104
E 56 151 96
E 56 157 90
E 57 61 106
E 57 65 100
E 57 67 97
E 57 69 104
E 57 74 105
E 57 80 102
E 57 92 95
E 57 98 99
E 57 100 102
E 57 106 99
E 57 111 100
E 57 114 100
E 57 119 95
E 57 120 98
E 57 130 94
E 57 139 107
E 57 154 98
E 58 64 95
E 58 68 96
E 58 70 100
E 58 73 104
E 58 75 90
E 58 79 96
E 58 80 93
E 58 96 100
E 58 99 96
E 58 103 105
E 58 106 103
E 58 112 104
E 58 113 101
E 58 116 96
E 58 122 108
E 58 124 109
E 58 127 87
E 58 128 111
E 58 136 94
E 58 143 110
E 58 156 100
E 58 158 95
E 59 61 92
E 59 62 102
E 59 66 95
E 59 70 98
E 59 73 105
E 59 74 107
E 59 75 110
E 59 85 103
E 59 86 108
E 59 88 97
E 59 94 102
E 59 106 103
E 59 112 105
E 59 119 91
E 59 132 107
E 59 134 95
E 59 135 99
E 59 136 99
E 59 138 95
E 59 146 104
E 59 147 100
E 60 67 99
E 60 68 94
E 60 71 100
E 60 72 100
E 60 74 107
E 60 82 95
E 60 83 100
E 60 92 101
E 60 103 106
E 60 104 103
E 60 113 101
E 60 115 102
E 60 123 96
E 60 124 102
E 60 128 94
E 60 138 92
E 60 139 101
E 60 149 90
E 60 153 99
E 60 155 108
E 61 66 92
E 61 76 97
E 61 77 106
E 61 80 99
E 61 81 91
E 61 82 105
E 61 83 101
E 61 84 99
E 61 86 91
E 61 87 105
E 61 91 98
E 61 95 104
E 61 96 103
E 61 98 100
E 61 99 104
E 61 110 96
E 61 113 94
E 61 115 98
E 61 123 97
E 61 126 106
E 61 128 89
E 61 147 103
E 61 153 107
E 62 65 98
E 62 66 95
E 62 68 101
E 62 78 105
E 62 81 102
E 62 96 105
E 62 99 98
E 62 104 91
E 62 107 104
E 62 108 95
E 62 110 105
E 62 111 101
E 62 118 102
E 62 127 102
E 62 134 108
E 62 140 104
E 62 148 104
E 62 153 100
E 62 158 103
E 62 159 101
E 63 64 97
E 63 65 105
E 63 66 93
E 63 69 93
E 63 74 102
E 63 75 104
E 63 79 105
E 63 81 101
E 63 82 94
E 63 85 98
E 63 98 104
E 63 101 96
E 63 106 106
E 63 114 101
E 63 116 91
E 63 118 100
E 63 135 106
E 63 142 93
E 63 146 97
E 64 83 101
E 64 87 101
E 64 94 106
E 64 98 96
E 64 109 104
E 64 120 100
E 64 121 101
E 64 129 93
E 64 132 96
E 64 133 101
E 64 136 101
E 64 143 102
E 64 144 100
E 64 153 91
E 64 156 97
E 65 76 103
E 65 83 110
E 65 90 99
E 65 95 112
E 65 97 108
E 65 100 91
E 65 111 94
E 65 112 97
E 65 116 101
E 65 122 102
E 65 123 107
E 65 126 98
E 65 128 93
E 65 131 94
E 65 135 95
E 65 147 96
E 65 153 90
E 65 158 103
E 66 72 106
E 66 74 91
E 66 80 101
E 66 82 103
E 66 94 99
E 66 97 92
E 66 107 87
E 66 108 101
E 66 109 112
E 66 110 98
E 66 111 98
E 66 113 98
E 66 122 98
E 66 136 101
E 66 142 97
E 67 90 101
E 67 95 98
E 67 96 101
E 67 97 97
E 67 101 99
E 67 106 100
E 67 113 97
E 67 114 92
E 67 115 107
E 67 117 95
E 67 119 98
E 67 121 110
E 67 126 98
E 67 138 106
E 67 139 92
E 67 145 107
E 67 146 96
E 67 148 100
E 67 151 95
E 67 155 92
E 67 159 99
E 68 70 98
E 68 75 96
E 68 81 112
E 68 89 100
E 68 90 105
E 68 92 102
E 68 94 101
E 68 108 94
E 68 119 101
E 68 134 98
E 68 139 106
E 68 148 102
E 68 152 94
E 68 156 103
E 68 160 90
E 69 72 95
E 69 82 102
E 69 84 99
E 69 89 94
E 69 92 97
E 69 98 95
E 69 99 98
E 69 111 97
E 69 115 96
E 69 124 108
E 69 126 104
E 69 130 91
E 69 136 100
E 69 138 100
E 69 140 103
E 69 146 98
E 69 150 103
E 70 73 106
E 70 75 103
E 70 79 111
E 70 80 104
E 70 84 105
E 70 86 97
E 70 90 99
E 70 96 102
E 70 110 98
E 70 111 105
E 70 112 95
E 70 116 93
E 70 119 95
E 70 124 87
E 70 128 98
E 70 136 101
E 70 150 96
E 70 152 97
E 71 75 99
E 71 79 95
E 71 81 98
E 71 84 98
E 71 93 101
E 71 97 104
E 71 102 93
E 71 103 97
E 71 110 94
E 71 119 102
E 71 121 96
E 71 127 93
E 71 145 105
E 71 148 108
E 71 154 99
E 71 155 113
E 71 157 95
E 72 73 110
E 72 77 104
E 72 79 98
E 72 94 90
E 72 106 92
E 72 109 109
E 72 111 96
E 72 119 101
E 72 120 97
E 72 122 101
E 72 126 99
E 72 131 112
E 72 137 98
E 72 142 93
E 72 145 90
E 72 147 97
E 72 149 106
E 72 155 94
E 73 83 99
E 73 84 97
E 73 86 96
E 73 87 102
E 73 89 104
E 73 94 100
E 73 96 96
E 73 99 96
E 73 112 105
E 73 113 101
E 73 121 97
E 73 138 87
E 73 142 94
E 73 151 90
E 73 153 103
E 74 77 106
E 74 83 96
E 74 86 99
E 74 90 103
E 74 91 111
E 74 99 96
E 74 101 96
E 74 104 91
E 74 105 100
E 74 118 101
E 74 127 102
E 74 136 99
E 74 137 89
E 74 139 100
E 74 142 92
E 74 147 98
E 74 150 104
E 74 154 101
E 74 157 101
E 74 158 94
E 74 159 98
E 74 160 94
E 75 80 93
E 75 85 103
E 75 97 97
E 75 101 99
E 75 106 100
E 75 114 95
E 75 117 101
E 75 120 105
E 75 121 105
E 75 124 100
E 75 128 98
E 75 129 100
E 75 130 97
E 75 135 87
E 75 137 97
E 75 141 98
E 75 142 100
E 75 143 92
E 75 144 92
E 75 152 96
E 75 157 98
E 75 159 94
E 76 81 96
E 76 93 102
E 76 94 104
E 76 99 100
E 76 100 104
E 76 104 94
E 76 105 100
E 76 110 104
E 76 112 92
E 76 113 98
E 76 115 99
E 76 117 89
E 76 120 102
E 76 123 103
E 76 126 101
E 76 129 105
E 76 134 100
E 76 149 96
E 76 151 103
E 76 152 96
E 76 159 98
E 76 160 99
E 77 80 104
E 77 83 100
E 77 87 97
E 77 94 98
E 77 100 104
E 77 103 97
E 77 115 105
E 77 133 96
E 77 135 100
E 77 143 99
E 77 145 85
E 77 146 101
E 77 147 93
E 77 148 102
E 77 154 94
E 77 158 101
E 77 160 102
E 78 80 97
E 78 85 104
E 78 89 89
E 78 91 92
E 78 95 99
E 78 99 101
E 78 100 94
E 78 103 96
E 78 106 101
E 78 107 91
E 78 109 101
E 78 117 103
E 78 124 100
E 78 125 100
E 78 134 103
E 78 141 104
E 78 147 101
E 78 148 109
E 78 149 102
E 78 150 98
E 78 159 105
E 79 85 99
E 79 94 102
E 79 101 101
E 79 105 97
E 79 108 99
E 79 115 95
E 79 117 96
E 79 127 103
E 79 130 113
E 79 132 92
E 79 133 98
E 79 136 107
E 79 152 96
E 80 83 103
E 80 105 104
E 80 112 96
E 80 118 100
E 80 123 93
E 80 125 105
E 80 129 108
E 80 130 99
E 80 133 96
E 80 137 100
E 80 138 101
E 80 146 87
E 80 147 97
E 80 156 101
E 81 89 99
E 81 92 98
E 81 93 110
E 81 101 92
E 81 106 104
E 81 125 109
E 81 126 110
E 81 127 100
E 81 129 95
E 81 131 95
E 81 132 111
E 81 143 101
E 81 144 109
E 81 145 88
E 81 148 106
E 81 154 103
E 81 155 97
E 82 104 101
E 82 105 96
E 82 115 104
E 82 116 98
E 82 121 107
E 82 131 101
E 82 134 104
E 82 135 101
E 82 137 98
E 82 139 97
E 82 140 101
E 82 141 103
E 82 145 98
E 82 151 101
E 82 155 97
E 82 160 103
E 83 87 96
E 83 92 109
E 83 96 93
E 83 98 105
E 83 106 101
E 83 111 110
E 83 114 90
E 83 126 97
E 83 129 87
E 83 135 101
E 83 144 94
E 83 152 97
E 83 160 102
E 84 86 95
E 84 89 95
E 84 90 108
E 84 104 101
E 84 106 111
E 84 107 102
E 84 120 105
E 84 129 88
E 84 132 97
E 84 144 100
E 84 146 101
E 85 89 96
E 85 93 99
E 85 105 101
E 85 113 96
E 85 114 95
E 85 131 104
E 85 133 99
E 85 138 89
E 85 139 94
E 86 92 95
E 86 95 99
E 86 106 99
E 86 112 106
E 86 117 103
E 86 120 93
E 86 121 93
E 86 122 91
E 86 123 106
E 86 126 97
E 86 132 97
E 86 137 94
E 86 141 106
E 86 148 91
E 86 157 90
E 87 89 103
E 87 93 110
E 87 98 102
E 87 99 98
E 87 100 93
E 87 105 92
E 87 112 101
E 87 137 89
E 87 138 90
E 87 141 106
E 87 145 101
E 87 146 92
E 87 147 95
E 87 152 96
E 87 153 105
E 87 160 102
E 88 91 103
E 88 92 105
E 88 97 99
E 88 103 91
E 88 115 96
E 88 116 97
E 88 117 96
E 88 119 100
E 88 131 101
E 88 133 104
E 88 135 99
E 88 136 97
E 88 137 103
E 88 145 106
E 88 151 97
E 88 152 104
E 88 158 97
E 89 93 103
E 89 97 112
E 89 98 95
E 89 99 101
E 89 100 105
E 89 101 105
E 89 105 100
E 89 107 107
E 89 113 108
E 89 118 100
E 89 125 105
E 89 128 104
E 89 136 96
E 89 137 99
E 89 139 104
E 89 140 96
E 89 142 106
E 89 144 95
E 90 91 107
E 90 99 93
E 90 102 97
E 90 105 91
E 90 107 104
E 90 108 97
E 90 110 99
E 90 115 99
E 90 119 104
E 90 123 100
E 90 128 106
E 90 129 100
E 90 138 91
E 90 142 93
E 90 160 97
E 91 94 89
E 91 95 108
E 91 101 104
E 91 108 96
E 91 119 95
E 91 123 96
E 91 127 102
E 91 128 104
E 91 129 102
E 91 130 99
E 91 132 97
E 91 137 101
E 91 140 102
E 91 141 93
E 91 144 98
E 91 145 104
E 91 148 98
E 91 159 100
E 92 103 97
E 92 111 92
E 92 120 102
E 92 121 101
E 92 135 105
E 92 145 91
E 92 154 108
E 92 157 100
E 92 159 99
E 93 104 102
E 93 105 95
E 93 114 99
E 93 116 110
E 93 121 109
E 93 123 101
E 93 138 98
E 93 141 102
E 93 143 107
E 93 147 89
E 93 149 110
E 93 155 99
E 94 97 98
E 94 98 97
E 94 105 95
E 94 106 107
E 94 108 99
E 94 109 98
E 94 113 98
E 94 118 106
E 94 119 106
E 94 123 99
E 94 129 103
E 94 131 95
E 94 132 97
E 94 145 106
E 94 151 106
E 94 152 100
E 94 158 100
E 95 97 90
E 95 103 107
E 95 107 110
E 95 111 110
E 95 113 99
E 95 117 99
E 95 125 91
E 95 130 105
E 95 137 99
E 95 140 101
E 95 142 99
E 95 146 93
E 95 156 101
E 95 159 104
E 96 99 107
E 96 100 104
E 96 110 108
E 96 115 96
E 96 118 92
E 96 121 101
E 96 123 99
E 96 125 98
E 96 127 98
E 96 128 97
E 96 131 99
E 96 132 106
E 96 133 95
E 96 140 104
E 96 143 99
E 96 147 103
E 96 150 98
E 96 160 98
E 97 102 105
E 97 110 106
E 97 114 102
E 97 124 100
E 97 130 97
E 97 137 98
E 97 138 97
E 97 139 96
E 97 140 96
E 97 141 95
E 97 144 95
E 97 157 103
E 98 101 93
E 98 105 94
E 98 106 99
E 98 108 97
E 98 115 102
E 98 128 102
E 98 133 97
E 98 137 106
E 98 138 98
E 98 141 104
E 98 155 93
E 99 103 100
E 99 104 101
E 99 112 100
E 99 113 94
E 99 114 101
E 99 116 104
E 99 120 102
E 99 122 108
E 99 138 86
E 99 147 109
E 99 148 94
E 99 149 99
E 99 150 100
E 99 155 97
E 99 160 96
E 100 104 105
E 100 105 105
E 100 106 97
E 100 108 100
E 100 113 105
E 100 123 95
E 100 128 93
E 100 132 97
E 100 138 95
E 100 145 103
E 100 148 88
E 101 107 96
E 101 116 102
E 101 118 99
E 101 125 101
E 101 131 99
E 101 139 95
E 101 141 106
E 101 145 98
E 101 150 103
E 102 114 96
E 102 119 96
E 102 123 96
E 102 125 101
E 102 142 93
E 102 143 91
E 102 153 106
E 102 160 93
E 103 107 99
E 103 115 95
E 103 116 99
E 103 117 94
E 103 121 101
E 103 130 100
E 103 137 100
E 103 140 98
E 103 141 112
E 103 148 99
E 103 149 108
E 103 153 97
E 103 156 104
E 104 117 108
E 104 121 100
E 104 122 98
E 104 124 96
E 104 126 99
E 104 129 102
E 104 134 102
E 104 138 105
E 104 139 99
E 104 141 99
E 104 146 98
E 104 147 94
E 104 152 100
E 104 154 103
E 104 157 103
E 105 107 100
E 105 108 100
E 105 115 102
E 105 117 95
E 105 118 112
E 105 121 91
E 105 126 94
E 105 128 104
E 105 130 104
E 105 133 109
E 105 140 92
E 105 141 109
E 105 145 100
E 105 147 101
E 105 156 104
E 105 157 104
E 105 158 100
E 106 107 98
E 106 117 99
E 106 122 108
E 106 123 101
E 106 129 105
E 106 136 93
E 106 143 94
E 106 144 102
E 106 150 103
E 106 151 102
E 106 155 107
E 107 108 95
E 107 109 98
E 107 116 99
E 107 127 97
E 107 136 99
E 107 141 96
E 107 151 101
E 107 153 96
E 108 134 94
E 108 135 96
E 108 142 98
E 108 151 102
E 108 153 104
E 108 156 90
E 109 114 101
E 109 116 95
E 109 117 96
E 109 122 101
E 109 123 107
E 109 133 100
E 109 135 99
E 109 141 95
E 109 149 94
E 109 150 102
E 109 154 104
E 110 111 90
E 110 116 103
E 110 119 90
E 110 124 101
E 110 128 95
E 110 129 96
E 110 134 103
E 110 136 97
E 110 138 104
E 110 139 104
E 110 146 106
E 110 150 101
E 110 154 101
E 111 112 92
E 111 124 99
E 111 139 101
E 111 140 96
E 111 141 97
E 111 142 102
E 111 143 100
E 111 145 95
E 111 146 96
E 111 149 96
E 111 151 99
E 111 157 108
E 112 121 103
E 112 122 101
E 112 126 98
E 112 128 109
E 112 131 103
E 112 144 103
E 112 151 104
E 112 153 110
E 112 156 104
E 112 157 109
E 112 159 101
E 113 120 97
E 113 122 99
E 113 124 105
E 113 126 101
E 113 129 93
E 113 132 102
E 113 138 103
E 113 148 102
E 113 150 98
E 113 157 105
E 114 122 102
E 114 125 90
E 114 138 100
E 114 140 105
E 114 142 100
E 114 145 103
E 114 159 106
E 115 116 112
E 115 117 99
E 115 119 98
E 115 121 100
E 115 124 94
E 115 127 98
E 115 136 107
E 115 141 104
E 115 143 105
E 115 150 96
E 115 151 101
E 115 157 97
E 116 118 107
E 116 123 98
E 116 125 111
E 116 132 105
E 116 136 97
E 116 138 106
E 116 147 97
E 117 118 93
E 117 122 102
E 117 124 106
E 117 129 102
E 117 137 97
E 117 138 103
E 117 140 90
E 117 141 110
E 117 148 100
E 117 149 104
E 117 151 107
E 117 154 97
E 118 119 102
E 118 120 102
E 118 128 103
E 118 135 102
E 118 141 94
E 118 142 100
E 118 151 95
E 119 127 92
E 119 128 100
E 119 131 100
E 119 136 98
E 119 140 96
E 119 145 98
E 119 146 105
E 119 148 90
E 120 126 102
E 120 127 105
E 120 133 101
E 120 134 97
E 120 138 102
E 120 145 104
E 120 146 95
E 120 148 93
E 121 128 107
E 121 129 92
E 121 133 89
E 121 140 106
E 121 147 102
E 121 150 95
E 121 155 101
E 122 124 98
E 122 126 108
E 122 131 95
E 122 133 105
E 122 144 98
E 122 147 96
E 122 150 96
E 122 151 104
E 122 153 101
E 122 154 96
E 122 160 102
E 123 126 94
E 123 128 98
E 123 131 93
E 123 136 102
E 123 144 99
E 123 148 101
E 123 149 98
E 123 152 101
E 123 159 96
E 124 125 97
E 124 126 107
E 124 136 100
E 124 139 97
E 124 140 97
E 124 143 94
E 124 145 95
E 124 150 94
E 124 152 99
E 124 154 94
E 124 159 105
E 125 134 95
E 125 135 105
E 125 136 103
E 125 138 98
E 125 141 94
E 125 146 100
E 125 147 104
E 125 149 98
E 126 127 97
E 126 138 97
E 126 143 91
E 126 145 106
E 126 149 104
E 126 151 99
E 127 131 102
E 127 132 97
E 127 133 92
E 127 136 107
E 127 137 100
E 127 143 93
E 127 144 104
E 127 146 91
E 127 150 94
E 127 153 99
E 128 129 95
E 128 131 90
E 128 141 92
E 128 144 108
E 128 145 100
E 128 146 101
E 128 150 96
E 128 151 107
E 128 152 105
E 128 154 91
E 129 133 104
E 129 137 99
E 129 141 92
E 129 144 95
E 129 145 100
E 129 157 102
E 129 159 105
E 130 136 107
E 130 141 101
E 130 147 93
E 130 152 112
E 130 156 103
E 130 159 98
E 130 160 101
E 131 132 99
E 131 134 103
E 131 138 99
E 131 139 102
E 131 148 105
E 131 156 99
E 131 157 96
E 132 137 97
E 132 139 99
E 132 143 97
E 132 144 101
E 132 145 92
E 132 152 111
E 132 158 97
E 132 159 105
E 133 143 95
E 133 157 100
E 133 160 103
E 134 135 99
E 134 146 103
E 134 148 102
E 134 152 97
E 134 158 89
E 134 160 103
E 135 137 95
E 135 153 100
E 136 140 97
E 136 142 108
E 136 150 108
E 136 151 97
E 136 154 102
E 136 158 109
E 136 159 98
E 137 142 91
E 137 146 103
E 137 156 107
E 137 158 101
E 138 142 98
E 138 143 104
E 138 146 101
E 138 152 98
E 138 159 104
E 139 141 104
E 139 142 100
E 139 145 99
E 139 146 102
E 139 148 102
E 139 154 99
E 140 150 102
E 140 152 98
E 140 154 105
E 140 160 98
E 141 143 92
E 141 144 97
E 141 146 97
E 141 157 101
E 142 149 104
E 142 150 103
E 142 151 95
E 143 146 102
E 143 155 97
E 143 156 92
E 143 160 99
E 144 145 105
E 144 151 97
E 144 152 98
E 145 157 99
E 146 147 95
E 146 149 96
E 146 152 104
E 147 150 98
E 147 151 101
E 147 159 102
E 148 155 98
E 148 159 89
E 149 156 101
E 149 158 105
E 150 153 98
E 150 154 96
E 151 154 101
E 152 155 90
E 152 158 95
E 152 160 97
E 153 156 99
E 154 157 94
E 154 160 98
E 155 158 109
E 158 160 96
END

SECTION Terminals
Terminals 7
T 1
T 2
T 3
T 4
T 5
T 6
T 7
END

EOF
